words_hard_train/5493.qaiger
aag 22 9 0 1 13
2
4
8
12
14
18
22
28
32
45
6 3 5
10 7 9
16 13 15
20 16 19
24 20 23
26 10 24
30 26 29
34 32 22
36 35 20
38 8 28
40 38 6
42 37 40
44 31 43
i0 2 y1[7]
i1 1 x2[0]
i2 2 y1[5]
i3 2 y1[2]
i4 2 y1[4]
i5 2 y1[3]
i6 2 y1[1]
i7 2 y1[6]
i8 2 y1[0]
o0 bv[0]
c
simplified
  >
    159
    subtract
      1
      or
        << 7
          1 x2
        2 y1
