words_hard_train/5493.qaiger.qdimacs
p cnf 22 40
a 2 0
e 1 3 4 5 6 7 8 9 10 11 12 13 14 15 16 17 18 19 20 21 22 0
1 2 3 0
-1 -3 0
-2 -3 0
3 4 5 0
-3 -5 0
-4 -5 0
6 7 8 0
-6 -8 0
-7 -8 0
-8 9 10 0
8 -10 0
-9 -10 0
-10 11 12 0
10 -12 0
-11 -12 0
-5 -12 13 0
5 -13 0
12 -13 0
-13 14 15 0
13 -15 0
-14 -15 0
-16 -11 17 0
16 -17 0
11 -17 0
17 -10 18 0
-17 -18 0
10 -18 0
-4 -14 19 0
4 -19 0
14 -19 0
-19 -3 20 0
19 -20 0
3 -20 0
18 -20 21 0
-18 -21 0
20 -21 0
15 21 22 0
-15 -22 0
-21 -22 0
-22 0
